c CNF generator v0.9
p cnf 10 42
3 1 4 0
-6 4 4 0
-6 -1 -5 0
8 3 3 0
8 -10 -8 0
2 8 -2 0
5 9 4 0
4 -2 10 0
2 1 -7 0
7 -10 -7 0
2 -3 -6 0
6 -5 4 0
-1 8 -5 0
-8 -3 -10 0
10 2 5 0
3 5 9 0
1 1 -5 0
1 -2 -3 0
8 1 7 0
-4 9 2 0
5 4 -5 0
-6 -3 9 0
8 -2 1 0
7 7 -10 0
5 -7 9 0
4 -4 -3 0
2 -4 10 0
7 8 10 0
-6 -1 -9 0
-6 3 10 0
-9 10 -6 0
6 -9 -8 0
9 2 -5 0
4 9 -5 0
-7 2 -1 0
9 -7 3 0
10 6 -3 0
9 -3 10 0
-10 -3 1 0
-4 1 -4 0
-8 4 -1 0
-5 -2 4 0
